; benchmark generated from python API
(set-info :status unknown)
(declare-fun strlen_274_64 () (_ BitVec 64))
(declare-fun args_0_8 () (_ BitVec 8))
(declare-fun strlen_78_64 () (_ BitVec 64))
(declare-fun strncmp_ret_275_32 () (_ BitVec 32))
(declare-fun strncmp_ret_79_32 () (_ BitVec 32))
(declare-fun strlen_81_64 () (_ BitVec 64))
(declare-fun args_1_8 () (_ BitVec 8))
(declare-fun strncmp_ret_82_32 () (_ BitVec 32))
(declare-fun strlen_84_64 () (_ BitVec 64))
(declare-fun args_2_8 () (_ BitVec 8))
(declare-fun strncmp_ret_85_32 () (_ BitVec 32))
(declare-fun strlen_87_64 () (_ BitVec 64))
(declare-fun args_3_8 () (_ BitVec 8))
(declare-fun strncmp_ret_88_32 () (_ BitVec 32))
(declare-fun strlen_90_64 () (_ BitVec 64))
(declare-fun args_4_8 () (_ BitVec 8))
(declare-fun strncmp_ret_91_32 () (_ BitVec 32))
(declare-fun strlen_93_64 () (_ BitVec 64))
(declare-fun args_5_16 () (_ BitVec 16))
(declare-fun strncmp_ret_94_32 () (_ BitVec 32))
(declare-fun strlen_99_64 () (_ BitVec 64))
(declare-fun args_6_16 () (_ BitVec 16))
(declare-fun strncmp_ret_100_32 () (_ BitVec 32))
(declare-fun strlen_105_64 () (_ BitVec 64))
(declare-fun args_7_16 () (_ BitVec 16))
(declare-fun strncmp_ret_106_32 () (_ BitVec 32))
(declare-fun strlen_111_64 () (_ BitVec 64))
(declare-fun args_8_16 () (_ BitVec 16))
(declare-fun strncmp_ret_112_32 () (_ BitVec 32))
(declare-fun strlen_117_64 () (_ BitVec 64))
(declare-fun args_9_16 () (_ BitVec 16))
(declare-fun strncmp_ret_118_32 () (_ BitVec 32))
(declare-fun strlen_123_64 () (_ BitVec 64))
(declare-fun args_10_32 () (_ BitVec 32))
(declare-fun strncmp_ret_124_32 () (_ BitVec 32))
(declare-fun strlen_129_64 () (_ BitVec 64))
(declare-fun args_11_32 () (_ BitVec 32))
(declare-fun strncmp_ret_130_32 () (_ BitVec 32))
(declare-fun strlen_135_64 () (_ BitVec 64))
(declare-fun args_12_32 () (_ BitVec 32))
(declare-fun strncmp_ret_136_32 () (_ BitVec 32))
(declare-fun strlen_141_64 () (_ BitVec 64))
(declare-fun args_13_32 () (_ BitVec 32))
(declare-fun strncmp_ret_142_32 () (_ BitVec 32))
(declare-fun strlen_147_64 () (_ BitVec 64))
(declare-fun args_14_32 () (_ BitVec 32))
(declare-fun strncmp_ret_148_32 () (_ BitVec 32))
(declare-fun strlen_157_64 () (_ BitVec 64))
(declare-fun args_15_64 () (_ BitVec 64))
(declare-fun strncmp_ret_158_32 () (_ BitVec 32))
(declare-fun strlen_171_64 () (_ BitVec 64))
(declare-fun args_16_64 () (_ BitVec 64))
(declare-fun strncmp_ret_172_32 () (_ BitVec 32))
(declare-fun strlen_189_64 () (_ BitVec 64))
(declare-fun args_17_64 () (_ BitVec 64))
(declare-fun strncmp_ret_190_32 () (_ BitVec 32))
(declare-fun args_18_64 () (_ BitVec 64))
(declare-fun num_bytes_200_64 () (_ BitVec 64))
(declare-fun num_bytes_199_64 () (_ BitVec 64))
(declare-fun num_bytes_201_64 () (_ BitVec 64))
(declare-fun strlen_304_64 () (_ BitVec 64))
(declare-fun strncmp_ret_305_32 () (_ BitVec 32))
(assert
 (let ((?x16292 (bvadd (_ bv576460752303357824 64) strlen_274_64)))
 (let (($x69 (= (_ bv0 8) args_0_8)))
 (let ((?x46 (ite $x69 (_ bv576460752303357824 64) (_ bv576460752303357825 64))))
 (= ?x46 ?x16292)))))
(assert
 (let ((?x101 (bvadd (_ bv576460752303357824 64) strlen_78_64)))
 (let (($x69 (= (_ bv0 8) args_0_8)))
 (let ((?x46 (ite $x69 (_ bv576460752303357824 64) (_ bv576460752303357825 64))))
 (= ?x46 ?x101)))))
(assert
 (= (_ bv1 32) strncmp_ret_275_32))
(assert
 (let (($x104 (bvule (_ bv2 64) strlen_78_64)))
 (let (($x48 (= (_ bv2 64) strlen_78_64)))
 (let (($x175 (or $x48 $x104)))
 (let (($x176 (not $x175)))
 (let (($x57 (= (_ bv45 8) args_0_8)))
 (let (($x174 (not $x57)))
 (or $x174 $x176))))))))
(assert
 (= (_ bv1 32) strncmp_ret_79_32))
(assert
 (let ((?x158 (bvadd (_ bv576460752303357826 64) strlen_81_64)))
 (let (($x121 (= (_ bv0 8) args_1_8)))
 (let ((?x123 (ite $x121 (_ bv576460752303357826 64) (_ bv576460752303357827 64))))
 (= ?x123 ?x158)))))
(assert
 (let (($x161 (bvule (_ bv2 64) strlen_81_64)))
 (let (($x136 (= (_ bv2 64) strlen_81_64)))
 (let (($x129 (or $x136 $x161)))
 (let (($x130 (not $x129)))
 (let (($x142 (= (_ bv45 8) args_1_8)))
 (let (($x204 (not $x142)))
 (or $x204 $x130))))))))
(assert
 (= (_ bv1 32) strncmp_ret_82_32))
(assert
 (let ((?x764 (bvadd (_ bv576460752303357828 64) strlen_84_64)))
 (let (($x191 (= (_ bv0 8) args_2_8)))
 (let ((?x189 (ite $x191 (_ bv576460752303357828 64) (_ bv576460752303357829 64))))
 (= ?x189 ?x764)))))
(assert
 (let (($x767 (bvule (_ bv2 64) strlen_84_64)))
 (let (($x746 (= (_ bv2 64) strlen_84_64)))
 (let (($x169 (or $x746 $x767)))
 (let (($x167 (not $x169)))
 (let (($x747 (= (_ bv45 8) args_2_8)))
 (let (($x131 (not $x747)))
 (or $x131 $x167))))))))
(assert
 (= (_ bv1 32) strncmp_ret_85_32))
(assert
 (let ((?x616 (bvadd (_ bv576460752303357830 64) strlen_87_64)))
 (let (($x96 (= (_ bv0 8) args_3_8)))
 (let ((?x157 (ite $x96 (_ bv576460752303357830 64) (_ bv576460752303357831 64))))
 (= ?x157 ?x616)))))
(assert
 (let (($x281 (bvule (_ bv2 64) strlen_87_64)))
 (let (($x165 (= (_ bv2 64) strlen_87_64)))
 (let (($x234 (or $x165 $x281)))
 (let (($x233 (not $x234)))
 (let (($x134 (= (_ bv45 8) args_3_8)))
 (let (($x561 (not $x134)))
 (or $x561 $x233))))))))
(assert
 (= (_ bv1 32) strncmp_ret_88_32))
(assert
 (let ((?x729 (bvadd (_ bv576460752303357832 64) strlen_90_64)))
 (let (($x268 (= (_ bv0 8) args_4_8)))
 (let ((?x342 (ite $x268 (_ bv576460752303357832 64) (_ bv576460752303357833 64))))
 (= ?x342 ?x729)))))
(assert
 (let (($x97 (bvule (_ bv2 64) strlen_90_64)))
 (let (($x609 (= (_ bv2 64) strlen_90_64)))
 (let (($x815 (or $x609 $x97)))
 (let (($x852 (not $x815)))
 (let (($x357 (= (_ bv45 8) args_4_8)))
 (let (($x812 (not $x357)))
 (or $x812 $x852))))))))
(assert
 (= (_ bv1 32) strncmp_ret_91_32))
(assert
 (let ((?x589 (bvadd (_ bv576460752303357834 64) strlen_93_64)))
 (let ((?x273 ((_ extract 7 0) args_5_16)))
 (let (($x258 (= (_ bv0 8) ?x273)))
 (let ((?x446 (ite $x258 (_ bv576460752303357835 64) (_ bv576460752303357836 64))))
 (let ((?x242 ((_ extract 15 8) args_5_16)))
 (let (($x322 (= (_ bv0 8) ?x242)))
 (let ((?x414 (ite $x322 (_ bv576460752303357834 64) ?x446)))
 (= ?x414 ?x589)))))))))
(assert
 (let (($x619 (bvule (_ bv2 64) strlen_93_64)))
 (let (($x221 (= (_ bv2 64) strlen_93_64)))
 (let (($x1182 (or $x221 $x619)))
 (let (($x1181 (not $x1182)))
 (let ((?x242 ((_ extract 15 8) args_5_16)))
 (let (($x571 (= (_ bv45 8) ?x242)))
 (let (($x1183 (not $x571)))
 (let (($x600 (bvule (_ bv1 64) strlen_93_64)))
 (let (($x614 (not $x600)))
 (let ((?x273 ((_ extract 7 0) args_5_16)))
 (let (($x455 (= (_ bv105 8) ?x273)))
 (let (($x366 (or $x455 $x614)))
 (let (($x1192 (not $x366)))
 (or $x1192 $x1183 $x1181)))))))))))))))
(assert
 (= (_ bv1 32) strncmp_ret_94_32))
(assert
 (let ((?x702 (bvadd (_ bv576460752303357837 64) strlen_99_64)))
 (let ((?x779 ((_ extract 7 0) args_6_16)))
 (let (($x1191 (= (_ bv0 8) ?x779)))
 (let ((?x1221 (ite $x1191 (_ bv576460752303357838 64) (_ bv576460752303357839 64))))
 (let ((?x182 ((_ extract 15 8) args_6_16)))
 (let (($x369 (= (_ bv0 8) ?x182)))
 (let ((?x1222 (ite $x369 (_ bv576460752303357837 64) ?x1221)))
 (= ?x1222 ?x702)))))))))
(assert
 (let (($x278 (bvule (_ bv2 64) strlen_99_64)))
 (let (($x1226 (= (_ bv2 64) strlen_99_64)))
 (let (($x1634 (or $x1226 $x278)))
 (let (($x1633 (not $x1634)))
 (let ((?x182 ((_ extract 15 8) args_6_16)))
 (let (($x294 (= (_ bv45 8) ?x182)))
 (let (($x1635 (not $x294)))
 (let (($x708 (bvule (_ bv1 64) strlen_99_64)))
 (let (($x709 (not $x708)))
 (let ((?x779 ((_ extract 7 0) args_6_16)))
 (let (($x1231 (= (_ bv105 8) ?x779)))
 (let (($x1735 (or $x1231 $x709)))
 (let (($x1644 (not $x1735)))
 (or $x1644 $x1635 $x1633)))))))))))))))
(assert
 (= (_ bv1 32) strncmp_ret_100_32))
(assert
 (let ((?x1818 (bvadd (_ bv576460752303357840 64) strlen_105_64)))
 (let ((?x1558 ((_ extract 7 0) args_7_16)))
 (let (($x1643 (= (_ bv0 8) ?x1558)))
 (let ((?x1652 (ite $x1643 (_ bv576460752303357841 64) (_ bv576460752303357842 64))))
 (let ((?x1387 ((_ extract 15 8) args_7_16)))
 (let (($x1480 (= (_ bv0 8) ?x1387)))
 (let ((?x1653 (ite $x1480 (_ bv576460752303357840 64) ?x1652)))
 (= ?x1653 ?x1818)))))))))
(assert
 (let (($x1821 (bvule (_ bv2 64) strlen_105_64)))
 (let (($x1665 (= (_ bv2 64) strlen_105_64)))
 (let (($x2359 (or $x1665 $x1821)))
 (let (($x2358 (not $x2359)))
 (let ((?x1387 ((_ extract 15 8) args_7_16)))
 (let (($x1373 (= (_ bv45 8) ?x1387)))
 (let (($x2360 (not $x1373)))
 (let (($x1826 (bvule (_ bv1 64) strlen_105_64)))
 (let (($x1827 (not $x1826)))
 (let ((?x1558 ((_ extract 7 0) args_7_16)))
 (let (($x1670 (= (_ bv105 8) ?x1558)))
 (let (($x2027 (or $x1670 $x1827)))
 (let (($x2371 (not $x2027)))
 (or $x2371 $x2360 $x2358)))))))))))))))
(assert
 (= (_ bv1 32) strncmp_ret_106_32))
(assert
 (let ((?x2284 (bvadd (_ bv576460752303357843 64) strlen_111_64)))
 (let ((?x1852 ((_ extract 7 0) args_8_16)))
 (let (($x2370 (= (_ bv0 8) ?x1852)))
 (let ((?x2404 (ite $x2370 (_ bv576460752303357844 64) (_ bv576460752303357845 64))))
 (let ((?x2032 ((_ extract 15 8) args_8_16)))
 (let (($x1997 (= (_ bv0 8) ?x2032)))
 (let ((?x2405 (ite $x1997 (_ bv576460752303357843 64) ?x2404)))
 (= ?x2405 ?x2284)))))))))
(assert
 (let (($x2287 (bvule (_ bv2 64) strlen_111_64)))
 (let (($x2409 (= (_ bv2 64) strlen_111_64)))
 (let (($x3118 (or $x2409 $x2287)))
 (let (($x3117 (not $x3118)))
 (let ((?x2032 ((_ extract 15 8) args_8_16)))
 (let (($x1851 (= (_ bv45 8) ?x2032)))
 (let (($x3119 (not $x1851)))
 (let (($x2292 (bvule (_ bv1 64) strlen_111_64)))
 (let (($x2293 (not $x2292)))
 (let ((?x1852 ((_ extract 7 0) args_8_16)))
 (let (($x2414 (= (_ bv105 8) ?x1852)))
 (let (($x2522 (or $x2414 $x2293)))
 (let (($x3130 (not $x2522)))
 (or $x3130 $x3119 $x3117)))))))))))))))
(assert
 (= (_ bv1 32) strncmp_ret_112_32))
(assert
 (let ((?x3168 (bvadd (_ bv576460752303357846 64) strlen_117_64)))
 (let ((?x2852 ((_ extract 7 0) args_9_16)))
 (let (($x3129 (= (_ bv0 8) ?x2852)))
 (let ((?x3112 (ite $x3129 (_ bv576460752303357847 64) (_ bv576460752303357848 64))))
 (let ((?x2821 ((_ extract 15 8) args_9_16)))
 (let (($x3121 (= (_ bv0 8) ?x2821)))
 (let ((?x3111 (ite $x3121 (_ bv576460752303357846 64) ?x3112)))
 (= ?x3111 ?x3168)))))))))
(assert
 (let (($x3171 (bvule (_ bv2 64) strlen_117_64)))
 (let (($x3124 (= (_ bv2 64) strlen_117_64)))
 (let (($x4010 (or $x3124 $x3171)))
 (let (($x4011 (not $x4010)))
 (let ((?x2821 ((_ extract 15 8) args_9_16)))
 (let (($x2847 (= (_ bv45 8) ?x2821)))
 (let (($x4009 (not $x2847)))
 (let (($x3176 (bvule (_ bv1 64) strlen_117_64)))
 (let (($x3177 (not $x3176)))
 (let ((?x2852 ((_ extract 7 0) args_9_16)))
 (let (($x2583 (= (_ bv105 8) ?x2852)))
 (let (($x4007 (or $x2583 $x3177)))
 (let (($x4008 (not $x4007)))
 (or $x4008 $x4009 $x4011)))))))))))))))
(assert
 (= (_ bv1 32) strncmp_ret_118_32))
(assert
 (let ((?x3990 (bvadd (_ bv576460752303357849 64) strlen_123_64)))
 (let ((?x3092 ((_ extract 7 0) args_10_32)))
 (let (($x3393 (= (_ bv0 8) ?x3092)))
 (let ((?x3961 (ite $x3393 (_ bv576460752303357852 64) (_ bv576460752303357853 64))))
 (let ((?x3366 ((_ extract 15 8) args_10_32)))
 (let (($x3331 (= (_ bv0 8) ?x3366)))
 (let ((?x3960 (ite $x3331 (_ bv576460752303357851 64) ?x3961)))
 (let ((?x3358 ((_ extract 23 16) args_10_32)))
 (let (($x3984 (= (_ bv0 8) ?x3358)))
 (let ((?x3959 (ite $x3984 (_ bv576460752303357850 64) ?x3960)))
 (let ((?x3316 ((_ extract 31 24) args_10_32)))
 (let (($x3318 (= (_ bv0 8) ?x3316)))
 (let ((?x3958 (ite $x3318 (_ bv576460752303357849 64) ?x3959)))
 (= ?x3958 ?x3990)))))))))))))))
(assert
 (let ((?x3316 ((_ extract 31 24) args_10_32)))
 (let (($x3302 (= (_ bv45 8) ?x3316)))
 (let (($x4328 (not $x3302)))
 (let (($x3605 (= (_ bv2 64) strlen_123_64)))
 (let (($x4280 (not $x3605)))
 (let (($x3996 (bvule (_ bv1 64) strlen_123_64)))
 (let (($x3997 (not $x3996)))
 (let ((?x3358 ((_ extract 23 16) args_10_32)))
 (let (($x3963 (= (_ bv105 8) ?x3358)))
 (let (($x4474 (or $x3963 $x3997)))
 (let (($x4477 (not $x4474)))
 (or $x4477 $x4280 $x4328)))))))))))))
(assert
 (= (_ bv1 32) strncmp_ret_124_32))
(assert
 (let ((?x4754 (bvadd (_ bv576460752303357854 64) strlen_129_64)))
 (let ((?x4132 ((_ extract 7 0) args_11_32)))
 (let (($x3889 (= (_ bv0 8) ?x4132)))
 (let ((?x1118 (ite $x3889 (_ bv576460752303357857 64) (_ bv576460752303357858 64))))
 (let ((?x4320 ((_ extract 15 8) args_11_32)))
 (let (($x4329 (= (_ bv0 8) ?x4320)))
 (let ((?x2993 (ite $x4329 (_ bv576460752303357856 64) ?x1118)))
 (let ((?x3930 ((_ extract 23 16) args_11_32)))
 (let (($x4473 (= (_ bv0 8) ?x3930)))
 (let ((?x2992 (ite $x4473 (_ bv576460752303357855 64) ?x2993)))
 (let ((?x3738 ((_ extract 31 24) args_11_32)))
 (let (($x3872 (= (_ bv0 8) ?x3738)))
 (let ((?x3164 (ite $x3872 (_ bv576460752303357854 64) ?x2992)))
 (= ?x3164 ?x4754)))))))))))))))
(assert
 (let ((?x3738 ((_ extract 31 24) args_11_32)))
 (let (($x3860 (= (_ bv45 8) ?x3738)))
 (let (($x5387 (not $x3860)))
 (let (($x901 (= (_ bv2 64) strlen_129_64)))
 (let (($x5266 (not $x901)))
 (let (($x4760 (bvule (_ bv1 64) strlen_129_64)))
 (let (($x4761 (not $x4760)))
 (let ((?x3930 ((_ extract 23 16) args_11_32)))
 (let (($x1246 (= (_ bv105 8) ?x3930)))
 (let (($x5264 (or $x1246 $x4761)))
 (let (($x5265 (not $x5264)))
 (or $x5265 $x5266 $x5387)))))))))))))
(assert
 (= (_ bv1 32) strncmp_ret_130_32))
(assert
 (let ((?x5432 (bvadd (_ bv576460752303357859 64) strlen_135_64)))
 (let ((?x4643 ((_ extract 7 0) args_12_32)))
 (let (($x4664 (= (_ bv0 8) ?x4643)))
 (let ((?x4502 (ite $x4664 (_ bv576460752303357862 64) (_ bv576460752303357863 64))))
 (let ((?x4615 ((_ extract 15 8) args_12_32)))
 (let (($x5052 (= (_ bv0 8) ?x4615)))
 (let ((?x5315 (ite $x5052 (_ bv576460752303357861 64) ?x4502)))
 (let ((?x4639 ((_ extract 23 16) args_12_32)))
 (let (($x5295 (= (_ bv0 8) ?x4639)))
 (let ((?x5054 (ite $x5295 (_ bv576460752303357860 64) ?x5315)))
 (let ((?x4500 ((_ extract 31 24) args_12_32)))
 (let (($x4659 (= (_ bv0 8) ?x4500)))
 (let ((?x5316 (ite $x4659 (_ bv576460752303357859 64) ?x5054)))
 (= ?x5316 ?x5432)))))))))))))))
(assert
 (let ((?x4500 ((_ extract 31 24) args_12_32)))
 (let (($x4877 (= (_ bv45 8) ?x4500)))
 (let (($x5808 (not $x4877)))
 (let (($x5320 (= (_ bv2 64) strlen_135_64)))
 (let (($x5287 (not $x5320)))
 (let ((?x4639 ((_ extract 23 16) args_12_32)))
 (let (($x5100 (= (_ bv105 8) ?x4639)))
 (let (($x5334 (bvule (_ bv1 64) strlen_135_64)))
 (let (($x5333 (not $x5334)))
 (let (($x5977 (or $x5333 $x5100)))
 (let (($x6014 (not $x5977)))
 (or $x6014 $x5287 $x5808)))))))))))))
(assert
 (= (_ bv1 32) strncmp_ret_136_32))
(assert
 (let ((?x6051 (bvadd (_ bv576460752303357864 64) strlen_141_64)))
 (let ((?x5193 ((_ extract 7 0) args_13_32)))
 (let (($x5810 (= (_ bv0 8) ?x5193)))
 (let ((?x5941 (ite $x5810 (_ bv576460752303357867 64) (_ bv576460752303357868 64))))
 (let ((?x5752 ((_ extract 15 8) args_13_32)))
 (let (($x5809 (= (_ bv0 8) ?x5752)))
 (let ((?x5940 (ite $x5809 (_ bv576460752303357866 64) ?x5941)))
 (let ((?x5879 ((_ extract 23 16) args_13_32)))
 (let (($x5976 (= (_ bv0 8) ?x5879)))
 (let ((?x5939 (ite $x5976 (_ bv576460752303357865 64) ?x5940)))
 (let ((?x5380 ((_ extract 31 24) args_13_32)))
 (let (($x5374 (= (_ bv0 8) ?x5380)))
 (let ((?x5938 (ite $x5374 (_ bv576460752303357864 64) ?x5939)))
 (= ?x5938 ?x6051)))))))))))))))
(assert
 (let ((?x5380 ((_ extract 31 24) args_13_32)))
 (let (($x5591 (= (_ bv45 8) ?x5380)))
 (let (($x6417 (not $x5591)))
 (let (($x5958 (= (_ bv2 64) strlen_141_64)))
 (let (($x6252 (not $x5958)))
 (let (($x6057 (bvule (_ bv1 64) strlen_141_64)))
 (let (($x6058 (not $x6057)))
 (let ((?x5879 ((_ extract 23 16) args_13_32)))
 (let (($x5961 (= (_ bv105 8) ?x5879)))
 (let (($x6995 (or $x5961 $x6058)))
 (let (($x6998 (not $x6995)))
 (or $x6998 $x6252 $x6417)))))))))))))
(assert
 (= (_ bv1 32) strncmp_ret_142_32))
(assert
 (let ((?x6795 (bvadd (_ bv576460752303357869 64) strlen_147_64)))
 (let ((?x6356 ((_ extract 7 0) args_14_32)))
 (let (($x6416 (= (_ bv0 8) ?x6356)))
 (let ((?x6969 (ite $x6416 (_ bv576460752303357872 64) (_ bv576460752303357873 64))))
 (let ((?x6433 ((_ extract 15 8) args_14_32)))
 (let (($x6523 (= (_ bv0 8) ?x6433)))
 (let ((?x6966 (ite $x6523 (_ bv576460752303357871 64) ?x6969)))
 (let ((?x5337 ((_ extract 23 16) args_14_32)))
 (let (($x6994 (= (_ bv0 8) ?x5337)))
 (let ((?x6965 (ite $x6994 (_ bv576460752303357870 64) ?x6966)))
 (let ((?x6270 ((_ extract 31 24) args_14_32)))
 (let (($x5985 (= (_ bv0 8) ?x6270)))
 (let ((?x6964 (ite $x5985 (_ bv576460752303357869 64) ?x6965)))
 (= ?x6964 ?x6795)))))))))))))))
(assert
 (let ((?x6270 ((_ extract 31 24) args_14_32)))
 (let (($x5368 (= (_ bv45 8) ?x6270)))
 (let (($x8173 (not $x5368)))
 (let (($x6977 (= (_ bv2 64) strlen_147_64)))
 (let (($x8166 (not $x6977)))
 (let (($x6801 (bvule (_ bv1 64) strlen_147_64)))
 (let (($x6802 (not $x6801)))
 (let ((?x5337 ((_ extract 23 16) args_14_32)))
 (let (($x6980 (= (_ bv105 8) ?x5337)))
 (let (($x1494 (or $x6980 $x6802)))
 (let (($x1513 (not $x1494)))
 (or $x1513 $x8166 $x8173)))))))))))))
(assert
 (= (_ bv1 32) strncmp_ret_148_32))
(assert
 (let ((?x1475 (bvadd (_ bv576460752303357874 64) strlen_157_64)))
 (let ((?x7178 ((_ extract 7 0) args_15_64)))
 (let (($x922 (= (_ bv0 8) ?x7178)))
 (let ((?x1100 (ite $x922 (_ bv576460752303357881 64) (_ bv576460752303357882 64))))
 (let ((?x7587 ((_ extract 15 8) args_15_64)))
 (let (($x8179 (= (_ bv0 8) ?x7587)))
 (let ((?x931 (ite $x8179 (_ bv576460752303357880 64) ?x1100)))
 (let ((?x6954 ((_ extract 23 16) args_15_64)))
 (let (($x8128 (= (_ bv0 8) ?x6954)))
 (let ((?x1267 (ite $x8128 (_ bv576460752303357879 64) ?x931)))
 (let ((?x7233 ((_ extract 31 24) args_15_64)))
 (let (($x8118 (= (_ bv0 8) ?x7233)))
 (let ((?x1716 (ite $x8118 (_ bv576460752303357878 64) ?x1267)))
 (let ((?x7510 ((_ extract 39 32) args_15_64)))
 (let (($x8099 (= (_ bv0 8) ?x7510)))
 (let ((?x1719 (ite $x8099 (_ bv576460752303357877 64) ?x1716)))
 (let ((?x6919 ((_ extract 47 40) args_15_64)))
 (let (($x8150 (= (_ bv0 8) ?x6919)))
 (let ((?x1712 (ite $x8150 (_ bv576460752303357876 64) ?x1719)))
 (let ((?x7152 ((_ extract 55 48) args_15_64)))
 (let (($x8149 (= (_ bv0 8) ?x7152)))
 (let ((?x1124 (ite $x8149 (_ bv576460752303357875 64) ?x1712)))
 (let ((?x7096 ((_ extract 63 56) args_15_64)))
 (let (($x7284 (= (_ bv0 8) ?x7096)))
 (let ((?x1107 (ite $x7284 (_ bv576460752303357874 64) ?x1124)))
 (= ?x1107 ?x1475)))))))))))))))))))))))))))
(assert
 (let ((?x7096 ((_ extract 63 56) args_15_64)))
 (let (($x7318 (= (_ bv45 8) ?x7096)))
 (let (($x2531 (not $x7318)))
 (let (($x1566 (= (_ bv2 64) strlen_157_64)))
 (let (($x9872 (not $x1566)))
 (let (($x7286 (bvule (_ bv1 64) strlen_157_64)))
 (let (($x7285 (not $x7286)))
 (let ((?x7152 ((_ extract 55 48) args_15_64)))
 (let (($x1326 (= (_ bv105 8) ?x7152)))
 (let (($x9479 (or $x1326 $x7285)))
 (let (($x9491 (not $x9479)))
 (or $x9491 $x9872 $x2531)))))))))))))
(assert
 (= (_ bv1 32) strncmp_ret_158_32))
(assert
 (let ((?x2501 (bvadd (_ bv576460752303357883 64) strlen_171_64)))
 (let ((?x1645 ((_ extract 7 0) args_16_64)))
 (let (($x2455 (= (_ bv0 8) ?x1645)))
 (let ((?x2164 (ite $x2455 (_ bv576460752303357890 64) (_ bv576460752303357891 64))))
 (let ((?x1452 ((_ extract 15 8) args_16_64)))
 (let (($x2232 (= (_ bv0 8) ?x1452)))
 (let ((?x9376 (ite $x2232 (_ bv576460752303357889 64) ?x2164)))
 (let ((?x2105 ((_ extract 23 16) args_16_64)))
 (let (($x3050 (= (_ bv0 8) ?x2105)))
 (let ((?x2885 (ite $x3050 (_ bv576460752303357888 64) ?x9376)))
 (let ((?x2015 ((_ extract 31 24) args_16_64)))
 (let (($x2681 (= (_ bv0 8) ?x2015)))
 (let ((?x9358 (ite $x2681 (_ bv576460752303357887 64) ?x2885)))
 (let ((?x2102 ((_ extract 39 32) args_16_64)))
 (let (($x9908 (= (_ bv0 8) ?x2102)))
 (let ((?x9624 (ite $x9908 (_ bv576460752303357886 64) ?x9358)))
 (let ((?x2108 ((_ extract 47 40) args_16_64)))
 (let (($x2947 (= (_ bv0 8) ?x2108)))
 (let ((?x2824 (ite $x2947 (_ bv576460752303357885 64) ?x9624)))
 (let ((?x2170 ((_ extract 55 48) args_16_64)))
 (let (($x9858 (= (_ bv0 8) ?x2170)))
 (let ((?x9549 (ite $x9858 (_ bv576460752303357884 64) ?x2824)))
 (let ((?x9051 ((_ extract 63 56) args_16_64)))
 (let (($x1168 (= (_ bv0 8) ?x9051)))
 (let ((?x2682 (ite $x1168 (_ bv576460752303357883 64) ?x9549)))
 (= ?x2682 ?x2501)))))))))))))))))))))))))))
(assert
 (let ((?x9051 ((_ extract 63 56) args_16_64)))
 (let (($x8549 (= (_ bv45 8) ?x9051)))
 (let (($x4060 (not $x8549)))
 (let (($x2266 (= (_ bv2 64) strlen_171_64)))
 (let (($x10385 (not $x2266)))
 (let ((?x2170 ((_ extract 55 48) args_16_64)))
 (let (($x2376 (= (_ bv105 8) ?x2170)))
 (let (($x8609 (bvule (_ bv1 64) strlen_171_64)))
 (let (($x7822 (not $x8609)))
 (let (($x11027 (or $x7822 $x2376)))
 (let (($x3851 (not $x11027)))
 (or $x3851 $x10385 $x4060)))))))))))))
(assert
 (= (_ bv1 32) strncmp_ret_172_32))
(assert
 (= (_ bv2 64) strlen_189_64))
(assert
 (let ((?x3490 ((_ extract 47 40) args_17_64)))
 (= (_ bv0 8) ?x3490)))
(assert
 (let ((?x2965 ((_ extract 63 56) args_17_64)))
 (= (_ bv45 8) ?x2965)))
(assert
 (let ((?x3666 ((_ extract 55 48) args_17_64)))
 (= (_ bv105 8) ?x3666)))
(assert
 (= (_ bv0 32) strncmp_ret_190_32))
(assert
 (let ((?x4976 ((_ extract 55 54) args_18_64)))
 (let (($x12317 (= (_ bv0 2) ?x4976)))
 (let (($x5435 (not $x12317)))
 (let ((?x4667 ((_ extract 55 48) args_18_64)))
 (let (($x5079 (bvule (_ bv48 8) ?x4667)))
 (let (($x11057 (not $x5079)))
 (let ((?x5062 ((_ extract 53 48) args_18_64)))
 (let (($x4951 (bvule ?x5062 (_ bv57 6))))
 (let (($x11325 (not $x4951)))
 (let (($x16596 (or $x11325 $x11057 $x5435)))
 (let (($x3408 (= (_ bv1 64) num_bytes_200_64)))
 (let (($x16003 (not $x3408)))
 (let ((?x12114 ((_ extract 47 46) args_18_64)))
 (let (($x17343 (= (_ bv0 2) ?x12114)))
 (let (($x15846 (not $x17343)))
 (let ((?x4953 ((_ extract 47 40) args_18_64)))
 (let (($x12111 (bvule (_ bv48 8) ?x4953)))
 (let (($x11348 (not $x12111)))
 (let ((?x12112 ((_ extract 45 40) args_18_64)))
 (let (($x12261 (bvule ?x12112 (_ bv57 6))))
 (let (($x10271 (not $x12261)))
 (let (($x16565 (or $x10271 $x11348 $x15846)))
 (let (($x15803 (not $x16565)))
 (let (($x16324 (or $x15803 $x16003 $x16596)))
 (let (($x16695 (not $x16324)))
 (let (($x15236 (not $x16596)))
 (let (($x11413 (= (_ bv0 64) num_bytes_200_64)))
 (let (($x14997 (not $x11413)))
 (let (($x15273 (or $x14997 $x15236)))
 (let (($x15381 (not $x15273)))
 (let (($x16631 (or $x16596 $x16565)))
 (let (($x11851 (= (_ bv2 64) num_bytes_200_64)))
 (let (($x12023 (not $x11851)))
 (let ((?x12016 ((_ extract 39 38) args_18_64)))
 (let (($x17341 (= (_ bv0 2) ?x12016)))
 (let (($x17267 (not $x17341)))
 (let ((?x5036 ((_ extract 39 32) args_18_64)))
 (let (($x12088 (bvule (_ bv48 8) ?x5036)))
 (let (($x11170 (not $x12088)))
 (let ((?x1478 ((_ extract 37 32) args_18_64)))
 (let (($x1482 (bvule ?x1478 (_ bv57 6))))
 (let (($x11074 (not $x1482)))
 (let (($x16442 (or $x11074 $x11170 $x17267)))
 (let (($x12019 (not $x16442)))
 (let (($x14799 (or $x12019 $x12023 $x16631)))
 (let (($x14910 (not $x14799)))
 (let (($x15585 (or $x16442 $x16631)))
 (let (($x11988 (= (_ bv3 64) num_bytes_200_64)))
 (let (($x11101 (not $x11988)))
 (let ((?x12200 ((_ extract 31 30) args_18_64)))
 (let (($x8417 (= (_ bv0 2) ?x12200)))
 (let (($x13839 (not $x8417)))
 (let ((?x4989 ((_ extract 31 24) args_18_64)))
 (let (($x12099 (bvule (_ bv48 8) ?x4989)))
 (let (($x10906 (not $x12099)))
 (let ((?x11903 ((_ extract 29 24) args_18_64)))
 (let (($x11925 (bvule ?x11903 (_ bv57 6))))
 (let (($x11364 (not $x11925)))
 (let (($x17331 (or $x11364 $x10906 $x13839)))
 (let (($x16890 (not $x17331)))
 (let (($x11367 (or $x16890 $x11101 $x15585)))
 (let (($x14707 (not $x11367)))
 (let (($x17318 (or $x17331 $x15585)))
 (let (($x11959 (= (_ bv4 64) num_bytes_200_64)))
 (let (($x17360 (not $x11959)))
 (let ((?x11665 ((_ extract 23 22) args_18_64)))
 (let (($x15293 (= (_ bv0 2) ?x11665)))
 (let (($x1122 (not $x15293)))
 (let ((?x4746 ((_ extract 23 16) args_18_64)))
 (let (($x11926 (bvule (_ bv48 8) ?x4746)))
 (let (($x11011 (not $x11926)))
 (let ((?x12237 ((_ extract 21 16) args_18_64)))
 (let (($x12223 (bvule ?x12237 (_ bv57 6))))
 (let (($x10199 (not $x12223)))
 (let (($x17326 (or $x10199 $x11011 $x1122)))
 (let (($x17357 (not $x17326)))
 (let (($x17457 (or $x17357 $x17360 $x17318)))
 (let (($x17460 (not $x17457)))
 (let (($x15361 (or $x17326 $x17318)))
 (let (($x11955 (= (_ bv5 64) num_bytes_200_64)))
 (let (($x17330 (not $x11955)))
 (let ((?x12158 ((_ extract 15 14) args_18_64)))
 (let (($x16540 (= (_ bv0 2) ?x12158)))
 (let (($x16251 (not $x16540)))
 (let ((?x4495 ((_ extract 15 8) args_18_64)))
 (let (($x12180 (bvule (_ bv48 8) ?x4495)))
 (let (($x11159 (not $x12180)))
 (let ((?x12147 ((_ extract 13 8) args_18_64)))
 (let (($x12064 (bvule ?x12147 (_ bv57 6))))
 (let (($x10830 (not $x12064)))
 (let (($x15801 (or $x10830 $x11159 $x16251)))
 (let (($x16826 (not $x15801)))
 (let (($x17332 (or $x16826 $x17330 $x15361)))
 (let (($x17355 (not $x17332)))
 (let (($x16321 (or $x15801 $x15361)))
 (let (($x11749 (= (_ bv6 64) num_bytes_200_64)))
 (let (($x16658 (not $x11749)))
 (let ((?x12176 ((_ extract 7 6) args_18_64)))
 (let (($x17327 (= (_ bv0 2) ?x12176)))
 (let (($x12918 (not $x17327)))
 (let ((?x4748 ((_ extract 7 0) args_18_64)))
 (let (($x12068 (bvule (_ bv48 8) ?x4748)))
 (let (($x11277 (not $x12068)))
 (let ((?x12218 ((_ extract 5 0) args_18_64)))
 (let (($x11876 (bvule ?x12218 (_ bv57 6))))
 (let (($x10834 (not $x11876)))
 (let (($x15244 (or $x10834 $x11277 $x12918)))
 (let (($x16654 (not $x15244)))
 (let (($x16667 (or $x16654 $x16658 $x16321)))
 (let (($x16671 (not $x16667)))
 (let (($x16049 (or $x15244 $x16321)))
 (let (($x5091 (= (_ bv7 64) num_bytes_200_64)))
 (let (($x14773 (not $x5091)))
 (let (($x17157 (or $x14773 $x16049)))
 (let (($x16345 (not $x17157)))
 (or $x16345 $x16671 $x17355 $x17460 $x14707 $x14910 $x15381 $x16695)))))))))))))))))))))))))))))))))))))))))))))))))))))))))))))))))))))))))))))))))))))))))))))))))))))))))))))))))))))
(assert
 (let ((?x4976 ((_ extract 55 54) args_18_64)))
 (let (($x12317 (= (_ bv0 2) ?x4976)))
 (let (($x5435 (not $x12317)))
 (let ((?x4667 ((_ extract 55 48) args_18_64)))
 (let (($x5079 (bvule (_ bv48 8) ?x4667)))
 (let (($x11057 (not $x5079)))
 (let ((?x5062 ((_ extract 53 48) args_18_64)))
 (let (($x4951 (bvule ?x5062 (_ bv57 6))))
 (let (($x11325 (not $x4951)))
 (let (($x16596 (or $x11325 $x11057 $x5435)))
 (let (($x4792 (= (_ bv1 64) num_bytes_199_64)))
 (let (($x10676 (not $x4792)))
 (let ((?x12114 ((_ extract 47 46) args_18_64)))
 (let (($x17343 (= (_ bv0 2) ?x12114)))
 (let (($x15846 (not $x17343)))
 (let ((?x4953 ((_ extract 47 40) args_18_64)))
 (let (($x12111 (bvule (_ bv48 8) ?x4953)))
 (let (($x11348 (not $x12111)))
 (let ((?x12112 ((_ extract 45 40) args_18_64)))
 (let (($x12261 (bvule ?x12112 (_ bv57 6))))
 (let (($x10271 (not $x12261)))
 (let (($x16565 (or $x10271 $x11348 $x15846)))
 (let (($x15803 (not $x16565)))
 (let (($x16453 (or $x15803 $x10676 $x16596)))
 (let (($x16106 (not $x16453)))
 (let (($x15236 (not $x16596)))
 (let (($x4959 (= (_ bv0 64) num_bytes_199_64)))
 (let (($x16337 (not $x4959)))
 (let (($x16861 (or $x16337 $x15236)))
 (let (($x16908 (not $x16861)))
 (let (($x16631 (or $x16596 $x16565)))
 (let (($x5067 (= (_ bv2 64) num_bytes_199_64)))
 (let (($x16773 (not $x5067)))
 (let ((?x12016 ((_ extract 39 38) args_18_64)))
 (let (($x17341 (= (_ bv0 2) ?x12016)))
 (let (($x17267 (not $x17341)))
 (let ((?x5036 ((_ extract 39 32) args_18_64)))
 (let (($x12088 (bvule (_ bv48 8) ?x5036)))
 (let (($x11170 (not $x12088)))
 (let ((?x1478 ((_ extract 37 32) args_18_64)))
 (let (($x1482 (bvule ?x1478 (_ bv57 6))))
 (let (($x11074 (not $x1482)))
 (let (($x16442 (or $x11074 $x11170 $x17267)))
 (let (($x12019 (not $x16442)))
 (let (($x14839 (or $x12019 $x16773 $x16631)))
 (let (($x4369 (not $x14839)))
 (let (($x15585 (or $x16442 $x16631)))
 (let (($x5210 (= (_ bv3 64) num_bytes_199_64)))
 (let (($x13729 (not $x5210)))
 (let ((?x12200 ((_ extract 31 30) args_18_64)))
 (let (($x8417 (= (_ bv0 2) ?x12200)))
 (let (($x13839 (not $x8417)))
 (let ((?x4989 ((_ extract 31 24) args_18_64)))
 (let (($x12099 (bvule (_ bv48 8) ?x4989)))
 (let (($x10906 (not $x12099)))
 (let ((?x11903 ((_ extract 29 24) args_18_64)))
 (let (($x11925 (bvule ?x11903 (_ bv57 6))))
 (let (($x11364 (not $x11925)))
 (let (($x17331 (or $x11364 $x10906 $x13839)))
 (let (($x16890 (not $x17331)))
 (let (($x16461 (or $x16890 $x13729 $x15585)))
 (let (($x16590 (not $x16461)))
 (let (($x17318 (or $x17331 $x15585)))
 (let (($x4965 (= (_ bv4 64) num_bytes_199_64)))
 (let (($x10047 (not $x4965)))
 (let ((?x11665 ((_ extract 23 22) args_18_64)))
 (let (($x15293 (= (_ bv0 2) ?x11665)))
 (let (($x1122 (not $x15293)))
 (let ((?x4746 ((_ extract 23 16) args_18_64)))
 (let (($x11926 (bvule (_ bv48 8) ?x4746)))
 (let (($x11011 (not $x11926)))
 (let ((?x12237 ((_ extract 21 16) args_18_64)))
 (let (($x12223 (bvule ?x12237 (_ bv57 6))))
 (let (($x10199 (not $x12223)))
 (let (($x17326 (or $x10199 $x11011 $x1122)))
 (let (($x17357 (not $x17326)))
 (let (($x16749 (or $x17357 $x10047 $x17318)))
 (let (($x15855 (not $x16749)))
 (let (($x15361 (or $x17326 $x17318)))
 (let (($x4946 (= (_ bv5 64) num_bytes_199_64)))
 (let (($x16732 (not $x4946)))
 (let ((?x12158 ((_ extract 15 14) args_18_64)))
 (let (($x16540 (= (_ bv0 2) ?x12158)))
 (let (($x16251 (not $x16540)))
 (let ((?x4495 ((_ extract 15 8) args_18_64)))
 (let (($x12180 (bvule (_ bv48 8) ?x4495)))
 (let (($x11159 (not $x12180)))
 (let ((?x12147 ((_ extract 13 8) args_18_64)))
 (let (($x12064 (bvule ?x12147 (_ bv57 6))))
 (let (($x10830 (not $x12064)))
 (let (($x15801 (or $x10830 $x11159 $x16251)))
 (let (($x16826 (not $x15801)))
 (let (($x13025 (or $x16826 $x16732 $x15361)))
 (let (($x9621 (not $x13025)))
 (let (($x16321 (or $x15801 $x15361)))
 (let (($x4728 (= (_ bv6 64) num_bytes_199_64)))
 (let (($x13406 (not $x4728)))
 (let ((?x12176 ((_ extract 7 6) args_18_64)))
 (let (($x17327 (= (_ bv0 2) ?x12176)))
 (let (($x12918 (not $x17327)))
 (let ((?x4748 ((_ extract 7 0) args_18_64)))
 (let (($x12068 (bvule (_ bv48 8) ?x4748)))
 (let (($x11277 (not $x12068)))
 (let ((?x12218 ((_ extract 5 0) args_18_64)))
 (let (($x11876 (bvule ?x12218 (_ bv57 6))))
 (let (($x10834 (not $x11876)))
 (let (($x15244 (or $x10834 $x11277 $x12918)))
 (let (($x16654 (not $x15244)))
 (let (($x16679 (or $x16654 $x13406 $x16321)))
 (let (($x17039 (not $x16679)))
 (let (($x16049 (or $x15244 $x16321)))
 (let (($x4788 (= (_ bv7 64) num_bytes_199_64)))
 (let (($x16874 (not $x4788)))
 (let (($x17018 (or $x16874 $x16049)))
 (let (($x17180 (not $x17018)))
 (or $x17180 $x17039 $x9621 $x15855 $x16590 $x4369 $x16908 $x16106)))))))))))))))))))))))))))))))))))))))))))))))))))))))))))))))))))))))))))))))))))))))))))))))))))))))))))))))))))))
(assert
 (let ((?x12386 ((_ extract 63 62) args_18_64)))
 (let (($x16666 (= (_ bv0 2) ?x12386)))
 (let (($x7802 (not $x16666)))
 (let ((?x4559 ((_ extract 63 56) args_18_64)))
 (let (($x12184 (bvule (_ bv48 8) ?x4559)))
 (let (($x11535 (not $x12184)))
 (let ((?x12145 ((_ extract 61 56) args_18_64)))
 (let (($x12331 (bvule ?x12145 (_ bv57 6))))
 (let (($x4271 (not $x12331)))
 (let (($x13121 (or $x4271 $x11535 $x7802)))
 (let (($x4602 (= (_ bv1 64) num_bytes_201_64)))
 (let (($x11308 (not $x4602)))
 (let ((?x4976 ((_ extract 55 54) args_18_64)))
 (let (($x12317 (= (_ bv0 2) ?x4976)))
 (let (($x5435 (not $x12317)))
 (let ((?x4667 ((_ extract 55 48) args_18_64)))
 (let (($x5079 (bvule (_ bv48 8) ?x4667)))
 (let (($x11057 (not $x5079)))
 (let ((?x5062 ((_ extract 53 48) args_18_64)))
 (let (($x4951 (bvule ?x5062 (_ bv57 6))))
 (let (($x11325 (not $x4951)))
 (let (($x16596 (or $x11325 $x11057 $x5435)))
 (let (($x15236 (not $x16596)))
 (let (($x17350 (or $x15236 $x11308 $x13121)))
 (let (($x15603 (not $x17350)))
 (let (($x16606 (not $x13121)))
 (let (($x4652 (= (_ bv0 64) num_bytes_201_64)))
 (let (($x13821 (not $x4652)))
 (let (($x16464 (or $x13821 $x16606)))
 (let (($x14508 (not $x16464)))
 (let (($x5023 (= (_ bv2 64) num_bytes_201_64)))
 (let (($x1052 (not $x5023)))
 (let ((?x12114 ((_ extract 47 46) args_18_64)))
 (let (($x17343 (= (_ bv0 2) ?x12114)))
 (let (($x15846 (not $x17343)))
 (let ((?x4953 ((_ extract 47 40) args_18_64)))
 (let (($x12111 (bvule (_ bv48 8) ?x4953)))
 (let (($x11348 (not $x12111)))
 (let ((?x12112 ((_ extract 45 40) args_18_64)))
 (let (($x12261 (bvule ?x12112 (_ bv57 6))))
 (let (($x10271 (not $x12261)))
 (let (($x16565 (or $x10271 $x11348 $x15846)))
 (let (($x15803 (not $x16565)))
 (let (($x10188 (or $x15803 $x1052 $x4271 $x7802 $x11535 $x16596)))
 (let (($x16229 (not $x10188)))
 (let (($x16631 (or $x16596 $x16565)))
 (let (($x11867 (= (_ bv3 64) num_bytes_201_64)))
 (let (($x14788 (not $x11867)))
 (let ((?x12016 ((_ extract 39 38) args_18_64)))
 (let (($x17341 (= (_ bv0 2) ?x12016)))
 (let (($x17267 (not $x17341)))
 (let ((?x5036 ((_ extract 39 32) args_18_64)))
 (let (($x12088 (bvule (_ bv48 8) ?x5036)))
 (let (($x11170 (not $x12088)))
 (let ((?x1478 ((_ extract 37 32) args_18_64)))
 (let (($x1482 (bvule ?x1478 (_ bv57 6))))
 (let (($x11074 (not $x1482)))
 (let (($x16442 (or $x11074 $x11170 $x17267)))
 (let (($x12019 (not $x16442)))
 (let (($x17320 (or $x12019 $x14788 $x13121 $x16631)))
 (let (($x16410 (not $x17320)))
 (let (($x15585 (or $x16442 $x16631)))
 (let (($x4525 (= (_ bv4 64) num_bytes_201_64)))
 (let (($x17319 (not $x4525)))
 (let ((?x12200 ((_ extract 31 30) args_18_64)))
 (let (($x8417 (= (_ bv0 2) ?x12200)))
 (let (($x13839 (not $x8417)))
 (let ((?x4989 ((_ extract 31 24) args_18_64)))
 (let (($x12099 (bvule (_ bv48 8) ?x4989)))
 (let (($x10906 (not $x12099)))
 (let ((?x11903 ((_ extract 29 24) args_18_64)))
 (let (($x11925 (bvule ?x11903 (_ bv57 6))))
 (let (($x11364 (not $x11925)))
 (let (($x17331 (or $x11364 $x10906 $x13839)))
 (let (($x16890 (not $x17331)))
 (let (($x17314 (or $x16890 $x17319 $x13121 $x15585)))
 (let (($x14255 (not $x17314)))
 (let (($x17318 (or $x17331 $x15585)))
 (let (($x11551 (= (_ bv5 64) num_bytes_201_64)))
 (let (($x16561 (not $x11551)))
 (let ((?x11665 ((_ extract 23 22) args_18_64)))
 (let (($x15293 (= (_ bv0 2) ?x11665)))
 (let (($x1122 (not $x15293)))
 (let ((?x4746 ((_ extract 23 16) args_18_64)))
 (let (($x11926 (bvule (_ bv48 8) ?x4746)))
 (let (($x11011 (not $x11926)))
 (let ((?x12237 ((_ extract 21 16) args_18_64)))
 (let (($x12223 (bvule ?x12237 (_ bv57 6))))
 (let (($x10199 (not $x12223)))
 (let (($x17326 (or $x10199 $x11011 $x1122)))
 (let (($x17357 (not $x17326)))
 (let (($x16036 (or $x17357 $x16561 $x13121 $x17318)))
 (let (($x17129 (not $x16036)))
 (let (($x15361 (or $x17326 $x17318)))
 (let (($x11542 (= (_ bv6 64) num_bytes_201_64)))
 (let (($x9952 (not $x11542)))
 (let ((?x12158 ((_ extract 15 14) args_18_64)))
 (let (($x16540 (= (_ bv0 2) ?x12158)))
 (let (($x16251 (not $x16540)))
 (let ((?x4495 ((_ extract 15 8) args_18_64)))
 (let (($x12180 (bvule (_ bv48 8) ?x4495)))
 (let (($x11159 (not $x12180)))
 (let ((?x12147 ((_ extract 13 8) args_18_64)))
 (let (($x12064 (bvule ?x12147 (_ bv57 6))))
 (let (($x10830 (not $x12064)))
 (let (($x15801 (or $x10830 $x11159 $x16251)))
 (let (($x16826 (not $x15801)))
 (let (($x16269 (or $x16826 $x9952 $x13121 $x15361)))
 (let (($x14668 (not $x16269)))
 (let (($x16321 (or $x15801 $x15361)))
 (let (($x1641 (= (_ bv7 64) num_bytes_201_64)))
 (let (($x10613 (not $x1641)))
 (let ((?x12176 ((_ extract 7 6) args_18_64)))
 (let (($x17327 (= (_ bv0 2) ?x12176)))
 (let (($x12918 (not $x17327)))
 (let ((?x4748 ((_ extract 7 0) args_18_64)))
 (let (($x12068 (bvule (_ bv48 8) ?x4748)))
 (let (($x11277 (not $x12068)))
 (let ((?x12218 ((_ extract 5 0) args_18_64)))
 (let (($x11876 (bvule ?x12218 (_ bv57 6))))
 (let (($x10834 (not $x11876)))
 (let (($x15244 (or $x10834 $x11277 $x12918)))
 (let (($x16654 (not $x15244)))
 (let (($x13878 (or $x16654 $x10613 $x13121 $x16321)))
 (let (($x16594 (not $x13878)))
 (let (($x16049 (or $x15244 $x16321)))
 (let (($x11629 (= (_ bv8 64) num_bytes_201_64)))
 (let (($x14416 (not $x11629)))
 (let (($x17113 (or $x14416 $x13121 $x16049)))
 (let (($x17032 (not $x17113)))
 (or $x17032 $x16594 $x14668 $x17129 $x14255 $x16410 $x16229 $x14508 $x15603))))))))))))))))))))))))))))))))))))))))))))))))))))))))))))))))))))))))))))))))))))))))))))))))))))))))))))))))))))))))))))))))))))
(assert
 (let (($x121 (= (_ bv0 8) args_1_8)))
 (let ((?x123 (ite $x121 (_ bv576460752303357826 64) (_ bv576460752303357827 64))))
 (let ((?x124 (bvsub ?x123 (_ bv576460752303357826 64))))
 (= ?x124 strlen_304_64)))))
(assert
 (let (($x12267 (= (_ bv1 32) strncmp_ret_305_32)))
 (let (($x11954 (bvult strlen_304_64 (_ bv0 64))))
 (let (($x142 (= (_ bv45 8) args_1_8)))
 (let (($x12290 (or $x142 $x11954)))
 (let (($x12377 (bvuge strlen_304_64 (_ bv6 64))))
 (let (($x12063 (= (_ bv6 64) strlen_304_64)))
 (let (($x12268 (or $x12063 $x12377)))
 (let (($x16304 (and $x12268 $x12290)))
 (let (($x12105 (not $x16304)))
 (let (($x12378 (and $x12105 $x12267)))
 (let (($x12067 (= (_ bv0 32) strncmp_ret_305_32)))
 (let (($x16184 (and $x12268 $x12290 $x12067)))
 (or $x16184 $x12378))))))))))))))
(assert
 (and (distinct (_ bv0 32) strncmp_ret_305_32) true))
(maximize strncmp_ret_94_32)
(maximize num_bytes_199_64)
(maximize strlen_111_64)
(maximize strncmp_ret_112_32)
(maximize args_12_32)
(maximize args_2_8)
(minimize strlen_78_64)
(minimize strncmp_ret_158_32)
(maximize num_bytes_200_64)
(minimize args_12_32)
(maximize strncmp_ret_79_32)
(maximize strncmp_ret_142_32)
(maximize strncmp_ret_106_32)
(minimize strlen_274_64)
(maximize strlen_90_64)
(maximize strncmp_ret_190_32)
(minimize strlen_147_64)
(minimize strncmp_ret_94_32)
(minimize strncmp_ret_130_32)
(maximize strncmp_ret_85_32)
(minimize strncmp_ret_88_32)
(minimize strncmp_ret_118_32)
(maximize strncmp_ret_136_32)
(maximize strlen_129_64)
(maximize strlen_189_64)
(maximize args_1_8)
(minimize strlen_129_64)
(maximize args_9_16)
(maximize strncmp_ret_124_32)
(minimize args_6_16)
(maximize args_5_16)
(maximize args_16_64)
(maximize strlen_81_64)
(minimize args_17_64)
(minimize args_10_32)
(minimize strncmp_ret_82_32)
(maximize args_17_64)
(maximize strlen_141_64)
(minimize args_4_8)
(maximize args_7_16)
(minimize num_bytes_200_64)
(maximize strlen_147_64)
(maximize strlen_304_64)
(minimize strncmp_ret_275_32)
(maximize strlen_84_64)
(minimize strlen_141_64)
(maximize strlen_157_64)
(minimize strncmp_ret_305_32)
(maximize args_10_32)
(maximize args_13_32)
(minimize strlen_135_64)
(minimize args_18_64)
(minimize strlen_304_64)
(maximize strlen_171_64)
(maximize args_15_64)
(minimize strlen_111_64)
(maximize num_bytes_201_64)
(minimize args_15_64)
(maximize strncmp_ret_275_32)
(maximize strlen_87_64)
(minimize args_9_16)
(maximize strlen_99_64)
(maximize strncmp_ret_172_32)
(minimize strlen_123_64)
(minimize strlen_171_64)
(maximize strncmp_ret_305_32)
(minimize strncmp_ret_106_32)
(maximize strncmp_ret_118_32)
(minimize strncmp_ret_124_32)
(minimize args_14_32)
(maximize args_14_32)
(minimize strncmp_ret_142_32)
(minimize args_0_8)
(maximize strncmp_ret_100_32)
(minimize strncmp_ret_79_32)
(maximize strncmp_ret_148_32)
(maximize args_11_32)
(minimize args_11_32)
(maximize strncmp_ret_158_32)
(minimize args_2_8)
(maximize args_4_8)
(minimize args_3_8)
(maximize strlen_105_64)
(minimize strlen_117_64)
(minimize args_5_16)
(maximize args_8_16)
(minimize num_bytes_199_64)
(check-sat)
(get-objectives)
